NAME          COPTPROB
OBJSENSE
  MIN
ROWS
 N  __OBJ___
 L  C25     
 L  C42     
 L  C58     
 L  C70     
 L  C77     
 L  C78     
 L  C139    
 L  C145    
 L  C179    
COLUMNS
    MARKER    'MARKER'                 'INTORG'
    x40       __OBJ___  31
    x40       C25       -1
    x138      __OBJ___  301
    x138      C58       -1
    x138      C179      -1
    x249      __OBJ___  102
    x249      C42       -1
    x249      C139      -1
    x261      __OBJ___  226
    x261      C58       -1
    x261      C78       -1
    x447      __OBJ___  138
    x447      C25       -1
    x447      C145      -1
    x584      __OBJ___  19
    x584      C70       -1
    x584      C78       -1
    x640      __OBJ___  49
    x640      C70       -1
    x640      C139      -1
    x688      __OBJ___  143
    x688      C25       -1
    x688      C77       -1
    x770      __OBJ___  216
    x770      C58       -1
    x888      __OBJ___  159
    x888      C42       -1
    x888      C77       -1
    x1176     __OBJ___  58
    x1176     C42       -1
    x1394     __OBJ___  181
    x1394     C145      -1
    x1394     C179      -1
    x1479     __OBJ___  115
    x1479     C77       -1
    MARKER    'MARKER'                 'INTEND'
RHS
    RHS       __OBJ___  -10825
    RHS       C25       -1
    RHS       C42       -1
    RHS       C58       -1
    RHS       C70       -1
    RHS       C77       -1
    RHS       C78       -1
    RHS       C139      -1
    RHS       C145      -1
    RHS       C179      -1
BOUNDS
 UP BOUND     x40       1
 UP BOUND     x138      1
 UP BOUND     x249      1
 UP BOUND     x261      1
 UP BOUND     x447      1
 UP BOUND     x584      1
 UP BOUND     x640      1
 UP BOUND     x688      1
 UP BOUND     x770      1
 UP BOUND     x888      1
 UP BOUND     x1176     1
 UP BOUND     x1394     1
 UP BOUND     x1479     1
ENDATA
